NAME: rue_20_4
TYPE: TSP
DIMENSION: 20
EDGE_WEIGHT_TYPE: EUC_2D
NODE_COORD_SECTION
1 71 74
2 92 9
3 8 53
4 38 31
5 57 80
6 51 15
7 66 93
8 13 59
9 72 75
10 20 23
11 32 4
12 75 92
13 56 72
14 84 56
15 60 84
16 92 29
17 74 14
18 97 38
19 50 83
20 54 51
